dates = {'2022-02-15','2022-02-16','2022-02-17','2022-02-18','2022-02-19','2022-02-20','2022-02-21'};

daysOfWeek = [Tuesday,Wednesday,Thursday,Friday,Saturday,Sunday,Monday];

% For this week, how many people will be here.
numPeople = [163,163,163,162,147,161,157];

% Physical workers need 50 to 100 % more nutrients per day.
numPhysicalWorkers = [50.5,50.5,50.5,50.5,50.5,47.0,47.0];

% Males need +25% more nutrients per day.
numMen = [134,134,134,134,136,145,133];

% Num people who do not eat categories. contains = {none, meat, milk, gluten, egg, nut, seed, sugars}
numRefusals = [| 0,0,0,0,5,0,2,0 | 0,0,0,0,5,0,2,0 | 0,0,0,0,5,0,2,0 | 0,0,0,1,6,2,2,0 | 0,1,0,6,2,0,0,0 | 0,10,0,0,3,26,2,7 | 0,4,0,0,0,0,17,16 |];

